(set-info :smt-lib-version 2.6)
(set-info :category "crafted")
(set-logic QF_FFA)
(define-sort FF0 () (_ FiniteField 52435875175126190479447740508185965837690552500527637822603658699938581184513))
(declare-fun x1 () Bool)
(declare-fun x0 () Bool)
(declare-fun out () FF0)
(declare-fun _2 () FF0)
(declare-fun _1 () FF0)
(declare-fun _0 () FF0)
(assert 
  (let ((let0 x1))
  (let ((let1 x0))
  (let ((let2 (or let1 let0)))
  (let ((let3 out))
  (let ((let4 (as ff1 FF0)))
  (let ((let5 (= let4 let3)))
  (let ((let6 (= let5 let2)))
  (let ((let7 (as ff0 FF0)))
  (let ((let8 (= let7 let3)))
  (let ((let9 (or let5 let8)))
  (let ((let10 (and let9 let6)))
  (let ((let11 (as ff52435875175126190479447740508185965837690552500527637822603658699938581184512 FF0)))
  (let ((let12 _2))
  (let ((let13 (ff.mul let12 let11)))
  (let ((let14 _1))
  (let ((let15 _0))
  (let ((let16 (ff.add let15 let14 let13)))
  (let ((let17 (ff.mul let15 let14)))
  (let ((let18 (= let17 let16)))
  (let ((let19 (ff.mul let14 let14)))
  (let ((let20 (= let19 let14)))
  (let ((let21 (ff.mul let15 let15)))
  (let ((let22 (= let21 let15)))
  (let ((let23 (and let22 let20 let18)))
  (let ((let24 (ite let0 let4 let7)))
  (let ((let25 (= let14 let24)))
  (let ((let26 (ite let1 let4 let7)))
  (let ((let27 (= let15 let26)))
  (let ((let28 (and let27 let25)))
  (let ((let29 (and let28 let23)))
  (let ((let30 (=> let29 let10)))
  (let ((let31 (not let30)))
  let31
))))))))))))))))))))))))))))))))
)
(check-sat)
